Optimize a model with 3897578 rows, 2278925 columns and 13881612 nonzeros
Model has 2450 quadratic objective terms
Coefficient statistics:
  Matrix range    [1e+00, 7e+02]
  Objective range [1e+02, 7e+02]
  Bounds range    [1e+00, 1e+05]
  RHS range       [1e+00, 1e+04]
Presolve removed 241026 rows and 158153 columns (presolve time = 6s) ...
Presolve removed 241075 rows and 158153 columns (presolve time = 15s) ...
Presolve removed 241075 rows and 162546 columns (presolve time = 15s) ...
Presolve removed 241075 rows and 198950 columns (presolve time = 20s) ...
Presolve removed 241075 rows and 198950 columns (presolve time = 25s) ...
Presolve removed 241075 rows and 198950 columns (presolve time = 30s) ...
Presolve removed 281921 rows and 239796 columns (presolve time = 37s) ...
Presolve removed 281921 rows and 239796 columns (presolve time = 40s) ...
Presolve removed 281921 rows and 239796 columns (presolve time = 45s) ...
Presolve removed 292358 rows and 239796 columns (presolve time = 50s) ...
Presolve removed 292358 rows and 239796 columns (presolve time = 55s) ...
Presolve removed 292358 rows and 239796 columns (presolve time = 60s) ...
Presolve removed 292615 rows and 239796 columns (presolve time = 65s) ...
Presolve removed 295713 rows and 239796 columns (presolve time = 70s) ...
Presolve removed 295713 rows and 239796 columns (presolve time = 75s) ...
Presolve removed 295713 rows and 239796 columns (presolve time = 80s) ...
Presolve removed 295713 rows and 239796 columns (presolve time = 85s) ...
Presolve removed 295713 rows and 239796 columns (presolve time = 90s) ...
Presolve removed 295713 rows and 239796 columns (presolve time = 95s) ...
Presolve removed 336960 rows and 239845 columns (presolve time = 101s) ...
Presolve removed 377191 rows and 259869 columns (presolve time = 110s) ...
Presolve removed 377191 rows and 298571 columns (presolve time = 110s) ...
Presolve removed 574194 rows and 392618 columns (presolve time = 115s) ...
Presolve removed 574194 rows and 392618 columns (presolve time = 122s) ...
Presolve removed 574195 rows and 392619 columns (presolve time = 126s) ...
Presolve removed 574217 rows and 392619 columns (presolve time = 136s) ...
Presolve removed 574217 rows and 392619 columns (presolve time = 140s) ...
Presolve removed 574217 rows and 392619 columns (presolve time = 145s) ...
Presolve removed 574217 rows and 392619 columns (presolve time = 150s) ...
Presolve removed 574217 rows and 392619 columns (presolve time = 155s) ...
Presolve removed 574217 rows and 392619 columns (presolve time = 160s) ...
Presolve removed 574217 rows and 392619 columns (presolve time = 165s) ...
Presolve removed 574217 rows and 392619 columns (presolve time = 170s) ...
Presolve removed 574217 rows and 392619 columns (presolve time = 175s) ...
Presolve removed 574217 rows and 392619 columns (presolve time = 180s) ...
Presolve removed 574217 rows and 392619 columns (presolve time = 185s) ...
Presolve removed 574217 rows and 392619 columns (presolve time = 190s) ...
Presolve removed 574217 rows and 392619 columns (presolve time = 195s) ...
Presolve removed 574217 rows and 392619 columns (presolve time = 200s) ...
Presolve removed 574217 rows and 392619 columns (presolve time = 205s) ...
Presolve removed 574217 rows and 392619 columns (presolve time = 210s) ...
Presolve removed 574217 rows and 392619 columns (presolve time = 215s) ...
Presolve removed 574217 rows and 392619 columns (presolve time = 220s) ...
Presolve removed 574217 rows and 392619 columns (presolve time = 225s) ...
Presolve removed 574217 rows and 392619 columns (presolve time = 230s) ...
Presolve removed 574217 rows and 392619 columns (presolve time = 235s) ...
Presolve removed 574217 rows and 392619 columns (presolve time = 240s) ...
Presolve removed 574217 rows and 392619 columns (presolve time = 245s) ...
Presolve removed 574217 rows and 392619 columns (presolve time = 250s) ...
Presolve removed 574217 rows and 392619 columns (presolve time = 255s) ...
Presolve removed 574217 rows and 392619 columns (presolve time = 260s) ...
Presolve removed 574217 rows and 392619 columns (presolve time = 265s) ...
Presolve removed 574217 rows and 392619 columns (presolve time = 270s) ...
Presolve removed 574217 rows and 392619 columns (presolve time = 275s) ...
Presolve removed 574217 rows and 392619 columns (presolve time = 280s) ...
Presolve removed 574217 rows and 392619 columns (presolve time = 285s) ...
Presolve removed 574217 rows and 392619 columns (presolve time = 290s) ...
Presolve removed 574217 rows and 392619 columns (presolve time = 295s) ...
Presolve removed 574217 rows and 392619 columns (presolve time = 300s) ...
Presolve removed 574217 rows and 392619 columns (presolve time = 305s) ...
Presolve removed 574217 rows and 392619 columns (presolve time = 310s) ...
Presolve removed 574217 rows and 392619 columns (presolve time = 315s) ...
Presolve removed 574217 rows and 392619 columns (presolve time = 320s) ...
Presolve removed 574217 rows and 392619 columns (presolve time = 325s) ...
Presolve removed 574217 rows and 392619 columns (presolve time = 330s) ...
Presolve removed 574217 rows and 392619 columns (presolve time = 335s) ...
Presolve removed 574217 rows and 392619 columns (presolve time = 340s) ...
Presolve removed 574217 rows and 392619 columns (presolve time = 345s) ...
Presolve removed 574217 rows and 392619 columns (presolve time = 350s) ...
Presolve removed 574217 rows and 392619 columns (presolve time = 355s) ...
Presolve removed 574217 rows and 392619 columns (presolve time = 360s) ...
Presolve removed 574217 rows and 392619 columns (presolve time = 365s) ...
Presolve removed 574217 rows and 392619 columns (presolve time = 370s) ...
Presolve removed 574217 rows and 392619 columns (presolve time = 375s) ...
Presolve removed 574217 rows and 392619 columns (presolve time = 380s) ...
Presolve removed 574217 rows and 392619 columns (presolve time = 385s) ...
Presolve removed 574217 rows and 392619 columns (presolve time = 390s) ...
Presolve removed 574217 rows and 392619 columns (presolve time = 395s) ...
Presolve removed 574217 rows and 392619 columns (presolve time = 400s) ...
Presolve removed 574217 rows and 392619 columns (presolve time = 405s) ...
Presolve removed 574217 rows and 392619 columns (presolve time = 410s) ...
Presolve removed 574217 rows and 392619 columns (presolve time = 415s) ...
Presolve removed 574217 rows and 392619 columns (presolve time = 420s) ...
Presolve removed 574217 rows and 392619 columns (presolve time = 425s) ...
Presolve removed 574217 rows and 392619 columns (presolve time = 430s) ...
Presolve removed 574217 rows and 392619 columns (presolve time = 435s) ...
Presolve removed 574217 rows and 392619 columns (presolve time = 440s) ...
Presolve removed 574217 rows and 392619 columns (presolve time = 445s) ...
Presolve removed 574217 rows and 392619 columns (presolve time = 450s) ...
Presolve removed 574217 rows and 392619 columns (presolve time = 455s) ...
Presolve removed 574217 rows and 392619 columns (presolve time = 460s) ...
Presolve removed 574217 rows and 392619 columns (presolve time = 465s) ...
Presolve removed 574217 rows and 392619 columns (presolve time = 470s) ...
Presolve removed 574217 rows and 392619 columns (presolve time = 475s) ...
Presolve removed 574217 rows and 392619 columns (presolve time = 480s) ...
Presolve removed 574217 rows and 392619 columns (presolve time = 485s) ...
Presolve removed 574217 rows and 392619 columns (presolve time = 490s) ...
Presolve removed 574217 rows and 392619 columns (presolve time = 495s) ...
Presolve removed 574217 rows and 418173 columns (presolve time = 500s) ...
Presolve removed 577963 rows and 418173 columns (presolve time = 505s) ...
Presolve removed 624085 rows and 441233 columns (presolve time = 512s) ...
Presolve removed 644945 rows and 441233 columns (presolve time = 515s) ...
Presolve removed 644945 rows and 441233 columns (presolve time = 522s) ...
Presolve removed 644945 rows and 441233 columns (presolve time = 533s) ...
Presolve removed 644945 rows and 441233 columns (presolve time = 535s) ...
Presolve removed 644945 rows and 441233 columns (presolve time = 540s) ...
Presolve removed 644945 rows and 441233 columns (presolve time = 545s) ...
Presolve removed 644945 rows and 441233 columns (presolve time = 550s) ...
Presolve removed 644945 rows and 441233 columns (presolve time = 555s) ...
Presolve removed 648520 rows and 444011 columns (presolve time = 819s) ...
Presolve removed 648520 rows and 444011 columns
Presolve time: 818.58s
Presolved: 3251508 rows, 1837364 columns, 12224784 nonzeros
Variable types: 502414 continuous, 1334950 integer (1334950 binary)
Found heuristic solution: objective 11795.500000
Optimize a model with 3251508 rows, 1837364 columns and 12224784 nonzeros
Coefficient statistics:
  Matrix range    [7e-01, 7e+02]
  Objective range [1e+00, 7e+02]
  Bounds range    [7e-01, 5e+01]
  RHS range       [1e+00, 1e+04]

Deterministic concurrent LP optimizer: primal simplex, dual simplex, and barrier
Showing barrier log only...

Presolve removed 880 rows and 0 columns (presolve time = 14s) ...
Presolve removed 880 rows and 0 columns (presolve time = 22s) ...
Presolve removed 880 rows and 0 columns (presolve time = 25s) ...
Presolve removed 1106 rows and 0 columns (presolve time = 37s) ...
Presolve removed 1106 rows and 0 columns
Presolved: 3250402 rows, 1837364 columns, 12203196 nonzeros

Root barrier log...

Elapsed ordering time = 11s
Elapsed ordering time = 15s
